p cnf 10 41
 4 -8 6 0
 -3 2 8 0
 -10 7 3 0
 2 -8 3 0
 -3 -8 10 0
 3 -10 4 0
 2 -10 -5 0
 9 6 4 0
 2 -7 3 0
 -7 -6 -5 0
 -7 -10 8 0
 6 -5 4 0
 8 7 9 0
 -4 -5 3 1 0
 7 10 -5 1 0
 6 5 -8 0
 8 3 -7 0
 1 -2 10 0
 10 -2 -8 0
 -2 -10 8 1 0
 -8 -7 -4 0
 5 2 -10 0
 10 9 6 0
 10 4 6 0
 -2 -6 9 0
 -9 -1 5 0
 5 8 -4 0
 -8 10 -3 0
 8 -6 -5 0
 -9 -10 -6 0
 9 -4 10 0
 -5 -4 9 0
 1 9 -10 0
 8 -5 -1 0
 -1 -3 5 0
 -6 5 10 0
 3 -8 6 0
 -9 3 -10 0
 7 1 2 0
 -6 2 -9 0
-1 0
